16500.0
1 0 1 0 0 1 0 1 1 0 0 1 0 0 1 0 0 1 0 0 1 0 0 0 1 0 0 1 0 0 
20 11 14 2 8 5 2 24 14 17 27 20 8 20 17 14 17 17 11 11 2 0 27 17 5 8 2 24 5 24 27 11 8 27 20 8 24 24 0 14 0 8 24 2 24 14 0 20 27 8 27 2 14 5 20 20 17 27 0 14 0 24 20 27 11 11 24 0 27 27 20 8 11 17 24 8 5 20 14 5 20 7 20 17 17 17 17 7 20 5 2 24 17 11 7 24 2 0 27 14 2 17 17 11 2 11 7 11 14 14 14 14 2 11 11 27 24 24 5 5 5 2 11 20 8 0 5 5 0 27 0 27 24 27 8 14 7 11 8 17 0 8 20 14 8 27 11 5 2 5 